25
25
1
3
3600
479 480 721 856 896 953 1101 1105 1290 1366 1410 1436 1488 1771 1791 1963 2056 2082 2147 2175 2536 2572 2625 2705 2738 
11 13 38 33 14 22 29 34 38 27 39 25 21 34 40 37 6 17 35 18 40 31 38 8 6 
